benchmark/results/graph__10-1000-0.10-04_7/graph__10-1000-0.10-04_7_Quinton_Benders_sub.lp
\ This file has been generated by DOcplex
\ ENCODING=ISO-8859-1
\Problem name: Quinton Benders_dual_sub

Minimize
 obj: 0.001377410468 pi_nr_a0 + 0.000877963126 pi_nr_a1
      + 0.001121076233 pi_nr_a2 + 0.000877963126 pi_nr_a3
      + 0.000907441016 pi_nr_a4 + 0.001207729469 pi_nr_a5
      + 0.001092896175 pi_nr_a6 + 0.001730103806 pi_nr_a7
      + 0.000916590284 pi_nr_a8 + 0.001018329939 pi_nr_a9 + pi_p_a0_a1
      + pi_p_a5_a5 + pi_p_a3_a2 + pi_p_a3_a7 + pi_p_a1_a2 + pi_p_a8_a8
      + pi_p_a0_a9 + 2579 pi_d_a0_a1_proc_2 + pi_d_a0_a1_proc_1
      + 2578 pi_d_a1_a0_proc_2 + 2579 pi_d_a0_a2_proc_2 + 3868 pi_d_a0_a2_proc_3
      + 2579 pi_d_a0_a2_proc_1 + 1289 pi_d_a2_a0_proc_3 + 2578 pi_d_a0_a3_proc_2
      + 2578 pi_d_a0_a3_proc_1 + pi_d_a3_a0_proc_2 + pi_d_a3_a0_proc_1
      + 2579 pi_d_a0_a4_proc_2 + 2579 pi_d_a0_a4_proc_3 + pi_d_a0_a4_proc_1
      + 2578 pi_d_a4_a0_proc_2 + 2578 pi_d_a4_a0_proc_3 + 2579 pi_d_a0_a5_proc_2
      + 3868 pi_d_a0_a5_proc_3 + 1289 pi_d_a5_a0_proc_3 + 2579 pi_d_a0_a6_proc_2
      + 2579 pi_d_a0_a6_proc_3 + pi_d_a0_a6_proc_1 + 2578 pi_d_a6_a0_proc_2
      + 2578 pi_d_a6_a0_proc_3 + 5157 pi_d_a0_a7_proc_2 + 5157 pi_d_a0_a7_proc_3
      + pi_d_a0_a8_proc_2 + pi_d_a0_a8_proc_3 + 5156 pi_d_a8_a0_proc_2
      + 5156 pi_d_a8_a0_proc_3 + 2579 pi_d_a0_a9_proc_2 + 2579 pi_d_a0_a9_proc_3
      + pi_d_a0_a9_proc_1 + 2578 pi_d_a9_a0_proc_2 + 2578 pi_d_a9_a0_proc_3
      + 2578 pi_d_a1_a2_proc_2 + 2578 pi_d_a1_a2_proc_1 + pi_d_a2_a1_proc_2
      + pi_d_a2_a1_proc_1 + 2578 pi_d_a1_a3_proc_2 + 3867 pi_d_a1_a3_proc_0
      + 2578 pi_d_a1_a3_proc_1 + pi_d_a3_a1_proc_2 + 1290 pi_d_a3_a1_proc_0
      + pi_d_a3_a1_proc_1 + 2578 pi_d_a1_a4_proc_2 + 2578 pi_d_a1_a4_proc_0
      + 2579 pi_d_a4_a1_proc_2 + 2579 pi_d_a4_a1_proc_0 + pi_d_a4_a1_proc_1
      + 2579 pi_d_a1_a5_proc_2 + 3868 pi_d_a1_a5_proc_0 + 1289 pi_d_a5_a1_proc_0
      + 2578 pi_d_a1_a6_proc_2 + 2578 pi_d_a1_a6_proc_0 + 2579 pi_d_a6_a1_proc_2
      + 2579 pi_d_a6_a1_proc_0 + pi_d_a6_a1_proc_1 + 3868 pi_d_a1_a7_proc_2
      + 2579 pi_d_a1_a7_proc_0 + 1289 pi_d_a7_a1_proc_2 + 2738 pi_d_a1_a8_proc_2
      + 1449 pi_d_a1_a8_proc_0 + 2419 pi_d_a8_a1_proc_2 + 1130 pi_d_a8_a1_proc_0
      + 2579 pi_d_a1_a9_proc_2 + 2579 pi_d_a1_a9_proc_0 + pi_d_a1_a9_proc_1
      + 2578 pi_d_a9_a1_proc_2 + 2578 pi_d_a9_a1_proc_0 + 2578 pi_d_a2_a3_proc_1
      + pi_d_a3_a2_proc_2 + 2579 pi_d_a3_a2_proc_1 + 2578 pi_d_a2_a4_proc_2
      + 3867 pi_d_a2_a4_proc_3 + 2578 pi_d_a2_a4_proc_1 + pi_d_a4_a2_proc_2
      + 1290 pi_d_a4_a2_proc_3 + pi_d_a4_a2_proc_1 + pi_d_a2_a5_proc_2
      + 2579 pi_d_a2_a5_proc_3 + 2578 pi_d_a5_a2_proc_3 + 2578 pi_d_a2_a6_proc_2
      + 3867 pi_d_a2_a6_proc_3 + 2578 pi_d_a2_a6_proc_1 + pi_d_a6_a2_proc_2
      + 1290 pi_d_a6_a2_proc_3 + pi_d_a6_a2_proc_1 + 2578 pi_d_a2_a7_proc_2
      + 3867 pi_d_a2_a7_proc_3 + pi_d_a7_a2_proc_2 + 1290 pi_d_a7_a2_proc_3
      + 2579 pi_d_a2_a8_proc_2 + 3868 pi_d_a2_a8_proc_3 + 1289 pi_d_a8_a2_proc_3
      + 2578 pi_d_a2_a9_proc_2 + 3867 pi_d_a2_a9_proc_3 + 2578 pi_d_a2_a9_proc_1
      + pi_d_a9_a2_proc_2 + 1290 pi_d_a9_a2_proc_3 + pi_d_a9_a2_proc_1
      + 2579 pi_d_a3_a4_proc_2 + 3868 pi_d_a3_a4_proc_0 + 2579 pi_d_a3_a4_proc_1
      + 1289 pi_d_a4_a3_proc_0 + 2 pi_d_a3_a5_proc_2 + 2580 pi_d_a3_a5_proc_0
      - pi_d_a5_a3_proc_2 + 2577 pi_d_a5_a3_proc_0 + 2579 pi_d_a3_a6_proc_2
      + 3868 pi_d_a3_a6_proc_0 + 2579 pi_d_a3_a6_proc_1 + 1289 pi_d_a6_a3_proc_0
      + 2579 pi_d_a3_a7_proc_2 + 2579 pi_d_a3_a7_proc_0 + 2579 pi_d_a3_a8_proc_2
      + 2579 pi_d_a3_a8_proc_0 + 2579 pi_d_a3_a9_proc_2 + 3868 pi_d_a3_a9_proc_0
      + 2579 pi_d_a3_a9_proc_1 + 1289 pi_d_a9_a3_proc_0 + pi_d_a4_a5_proc_2
      + 1290 pi_d_a4_a5_proc_3 + 1290 pi_d_a4_a5_proc_0 + 2578 pi_d_a5_a4_proc_2
      + 3867 pi_d_a5_a4_proc_3 + 3867 pi_d_a5_a4_proc_0 + 2579 pi_d_a4_a6_proc_2
      + 2579 pi_d_a4_a6_proc_3 + 2579 pi_d_a4_a6_proc_0 + pi_d_a4_a6_proc_1
      + 2578 pi_d_a6_a4_proc_2 + 2578 pi_d_a6_a4_proc_3 + 2578 pi_d_a6_a4_proc_0
      + 3868 pi_d_a4_a7_proc_2 + 3868 pi_d_a4_a7_proc_3 + 2579 pi_d_a4_a7_proc_0
      + 1289 pi_d_a7_a4_proc_2 + 1289 pi_d_a7_a4_proc_3 + 1290 pi_d_a4_a8_proc_2
      + 1290 pi_d_a4_a8_proc_3 + pi_d_a4_a8_proc_0 + 3867 pi_d_a8_a4_proc_2
      + 3867 pi_d_a8_a4_proc_3 + 2578 pi_d_a8_a4_proc_0 + 2579 pi_d_a4_a9_proc_2
      + 2579 pi_d_a4_a9_proc_3 + 2579 pi_d_a4_a9_proc_0 + pi_d_a4_a9_proc_1
      + 2578 pi_d_a9_a4_proc_2 + 2578 pi_d_a9_a4_proc_3 + 2578 pi_d_a9_a4_proc_0
      + 2578 pi_d_a5_a6_proc_2 + 3867 pi_d_a5_a6_proc_3 + 3867 pi_d_a5_a6_proc_0
      + pi_d_a6_a5_proc_2 + 1290 pi_d_a6_a5_proc_3 + 1290 pi_d_a6_a5_proc_0
      + 2578 pi_d_a5_a7_proc_2 + 3867 pi_d_a5_a7_proc_3 + 2578 pi_d_a5_a7_proc_0
      + pi_d_a7_a5_proc_2 + 1290 pi_d_a7_a5_proc_3 + pi_d_a7_a5_proc_0
      + 2578 pi_d_a5_a8_proc_2 + 3867 pi_d_a5_a8_proc_3 + 2578 pi_d_a5_a8_proc_0
      + pi_d_a8_a5_proc_2 + 1290 pi_d_a8_a5_proc_3 + pi_d_a8_a5_proc_0
      + 2578 pi_d_a5_a9_proc_2 + 3867 pi_d_a5_a9_proc_3 + 3867 pi_d_a5_a9_proc_0
      + pi_d_a9_a5_proc_2 + 1290 pi_d_a9_a5_proc_3 + 1290 pi_d_a9_a5_proc_0
      + 3868 pi_d_a6_a7_proc_2 + 3868 pi_d_a6_a7_proc_3 + 2579 pi_d_a6_a7_proc_0
      + 1289 pi_d_a7_a6_proc_2 + 1289 pi_d_a7_a6_proc_3 + 3868 pi_d_a6_a8_proc_2
      + 3868 pi_d_a6_a8_proc_3 + 2579 pi_d_a6_a8_proc_0 + 1289 pi_d_a8_a6_proc_2
      + 1289 pi_d_a8_a6_proc_3 + 2579 pi_d_a6_a9_proc_2 + 2579 pi_d_a6_a9_proc_3
      + 2579 pi_d_a6_a9_proc_0 + pi_d_a6_a9_proc_1 + 2578 pi_d_a9_a6_proc_2
      + 2578 pi_d_a9_a6_proc_3 + 2578 pi_d_a9_a6_proc_0 + 2579 pi_d_a7_a8_proc_2
      + 2579 pi_d_a7_a8_proc_3 + pi_d_a7_a8_proc_0 + 2578 pi_d_a8_a7_proc_2
      + 2578 pi_d_a8_a7_proc_3 + 3868 pi_d_a7_a9_proc_2 + 3868 pi_d_a7_a9_proc_3
      + 2579 pi_d_a7_a9_proc_0 + 1289 pi_d_a9_a7_proc_2 + 1289 pi_d_a9_a7_proc_3
      + 1289 pi_d_a8_a9_proc_2 + 1289 pi_d_a8_a9_proc_3 + 3868 pi_d_a9_a8_proc_2
      + 3868 pi_d_a9_a8_proc_3 + 2579 pi_d_a9_a8_proc_0 + pi_y2_a0_proc_1
      + pi_y2_a1_proc_1 + pi_y2_a2_proc_2 + pi_y2_a3_proc_2 + pi_y2_a4_proc_1
      + pi_y2_a5_proc_2 + pi_y2_a6_proc_1 + pi_y2_a7_proc_0 + pi_y2_a8_proc_0
      + pi_y2_a9_proc_1
Subject To
 c1: pi_nr_a0 + pi_nr_a1 + pi_nr_a2 + pi_nr_a3 + pi_nr_a4 + pi_nr_a5 + pi_nr_a6
     + pi_nr_a7 + pi_nr_a8 + pi_nr_a9 - pi_y1_a0 - pi_y1_a1 - pi_y1_a2
     - pi_y1_a3 - pi_y1_a4 - pi_y1_a5 - pi_y1_a6 - pi_y1_a7 - pi_y1_a8
     - pi_y1_a9 >= 1
 c2: pi_p_a0_a1 + pi_p_a0_a3 - pi_p_a4_a0 + pi_p_a0_a9 + pi_d_a0_a1_proc_2
     + pi_d_a0_a1_proc_1 - pi_d_a1_a0_proc_2 - pi_d_a1_a0_proc_1
     + pi_d_a0_a2_proc_2 + pi_d_a0_a2_proc_3 + pi_d_a0_a2_proc_1
     - pi_d_a2_a0_proc_2 - pi_d_a2_a0_proc_3 - pi_d_a2_a0_proc_1
     + pi_d_a0_a3_proc_2 + pi_d_a0_a3_proc_1 - pi_d_a3_a0_proc_2
     - pi_d_a3_a0_proc_1 + pi_d_a0_a4_proc_2 + pi_d_a0_a4_proc_3
     + pi_d_a0_a4_proc_1 - pi_d_a4_a0_proc_2 - pi_d_a4_a0_proc_3
     - pi_d_a4_a0_proc_1 + pi_d_a0_a5_proc_2 + pi_d_a0_a5_proc_3
     - pi_d_a5_a0_proc_2 - pi_d_a5_a0_proc_3 + pi_d_a0_a6_proc_2
     + pi_d_a0_a6_proc_3 + pi_d_a0_a6_proc_1 - pi_d_a6_a0_proc_2
     - pi_d_a6_a0_proc_3 - pi_d_a6_a0_proc_1 + pi_d_a0_a7_proc_2
     + pi_d_a0_a7_proc_3 - pi_d_a7_a0_proc_2 - pi_d_a7_a0_proc_3
     + pi_d_a0_a8_proc_2 + pi_d_a0_a8_proc_3 - pi_d_a8_a0_proc_2
     - pi_d_a8_a0_proc_3 + pi_d_a0_a9_proc_2 + pi_d_a0_a9_proc_3
     + pi_d_a0_a9_proc_1 - pi_d_a9_a0_proc_2 - pi_d_a9_a0_proc_3
     - pi_d_a9_a0_proc_1 >= 0
 c3: 726 pi_p_a0_a1 + 726 pi_p_a0_a3 + 726 pi_p_a0_a9 + 726 pi_d_a0_a1_proc_1
     + 726 pi_d_a0_a2_proc_1 + 726 pi_d_a0_a3_proc_1 + 726 pi_d_a0_a4_proc_1
     + 726 pi_d_a0_a6_proc_1 + 726 pi_d_a0_a9_proc_1 + pi_y1_a0
     + pi_y2_a0_proc_1 >= 0
 c4: 472 pi_p_a0_a1 + 472 pi_p_a0_a3 + 472 pi_p_a0_a9 + 472 pi_d_a0_a1_proc_2
     + 472 pi_d_a0_a2_proc_2 + 472 pi_d_a0_a3_proc_2 + 472 pi_d_a0_a4_proc_2
     + 472 pi_d_a0_a5_proc_2 + 472 pi_d_a0_a6_proc_2 + 472 pi_d_a0_a7_proc_2
     + 472 pi_d_a0_a8_proc_2 + 472 pi_d_a0_a9_proc_2 + pi_y1_a0
     + pi_y2_a0_proc_2 >= 0
 c5: 990 pi_p_a0_a1 + 990 pi_p_a0_a3 + 990 pi_p_a0_a9 + 990 pi_d_a0_a2_proc_3
     + 990 pi_d_a0_a4_proc_3 + 990 pi_d_a0_a5_proc_3 + 990 pi_d_a0_a6_proc_3
     + 990 pi_d_a0_a7_proc_3 + 990 pi_d_a0_a8_proc_3 + 990 pi_d_a0_a9_proc_3
     + pi_y1_a0 + pi_y2_a0_proc_3 >= 0
 c6: - pi_p_a0_a1 - pi_p_a2_a1 + pi_p_a1_a6 - pi_p_a7_a1 + pi_p_a1_a2
     - pi_d_a0_a1_proc_2 - pi_d_a0_a1_proc_1 + pi_d_a1_a0_proc_2
     + pi_d_a1_a0_proc_1 + pi_d_a1_a2_proc_2 + pi_d_a1_a2_proc_1
     - pi_d_a2_a1_proc_2 - pi_d_a2_a1_proc_1 + pi_d_a1_a3_proc_2
     + pi_d_a1_a3_proc_0 + pi_d_a1_a3_proc_1 - pi_d_a3_a1_proc_2
     - pi_d_a3_a1_proc_0 - pi_d_a3_a1_proc_1 + pi_d_a1_a4_proc_2
     + pi_d_a1_a4_proc_0 + pi_d_a1_a4_proc_1 - pi_d_a4_a1_proc_2
     - pi_d_a4_a1_proc_0 - pi_d_a4_a1_proc_1 + pi_d_a1_a5_proc_2
     + pi_d_a1_a5_proc_0 - pi_d_a5_a1_proc_2 - pi_d_a5_a1_proc_0
     + pi_d_a1_a6_proc_2 + pi_d_a1_a6_proc_0 + pi_d_a1_a6_proc_1
     - pi_d_a6_a1_proc_2 - pi_d_a6_a1_proc_0 - pi_d_a6_a1_proc_1
     + pi_d_a1_a7_proc_2 + pi_d_a1_a7_proc_0 - pi_d_a7_a1_proc_2
     - pi_d_a7_a1_proc_0 + pi_d_a1_a8_proc_2 + pi_d_a1_a8_proc_0
     - pi_d_a8_a1_proc_2 - pi_d_a8_a1_proc_0 + pi_d_a1_a9_proc_2
     + pi_d_a1_a9_proc_0 + pi_d_a1_a9_proc_1 - pi_d_a9_a1_proc_2
     - pi_d_a9_a1_proc_0 - pi_d_a9_a1_proc_1 >= 0
 c7: 945 pi_p_a1_a6 + 945 pi_p_a1_a2 + 945 pi_d_a1_a3_proc_0
     + 945 pi_d_a1_a4_proc_0 + 945 pi_d_a1_a5_proc_0 + 945 pi_d_a1_a6_proc_0
     + 945 pi_d_a1_a7_proc_0 + 945 pi_d_a1_a8_proc_0 + 945 pi_d_a1_a9_proc_0
     + pi_y1_a1 + pi_y2_a1_proc_0 >= 0
 c8: 1139 pi_p_a1_a6 + 1139 pi_p_a1_a2 + 1139 pi_d_a1_a0_proc_1
     + 1139 pi_d_a1_a2_proc_1 + 1139 pi_d_a1_a3_proc_1 + 1139 pi_d_a1_a4_proc_1
     + 1139 pi_d_a1_a6_proc_1 + 1139 pi_d_a1_a9_proc_1 + pi_y1_a1
     + pi_y2_a1_proc_1 >= 0
 c9: 1010 pi_p_a1_a6 + 1010 pi_p_a1_a2 + 1010 pi_d_a1_a0_proc_2
     + 1010 pi_d_a1_a2_proc_2 + 1010 pi_d_a1_a3_proc_2 + 1010 pi_d_a1_a4_proc_2
     + 1010 pi_d_a1_a5_proc_2 + 1010 pi_d_a1_a6_proc_2 + 1010 pi_d_a1_a7_proc_2
     + 1010 pi_d_a1_a8_proc_2 + 1010 pi_d_a1_a9_proc_2 + pi_y1_a1
     + pi_y2_a1_proc_2 >= 0
 c10: pi_p_a2_a1 - pi_p_a3_a2 - pi_p_a1_a2 + pi_p_a2_a3 - pi_d_a0_a2_proc_2
      - pi_d_a0_a2_proc_3 - pi_d_a0_a2_proc_1 + pi_d_a2_a0_proc_2
      + pi_d_a2_a0_proc_3 + pi_d_a2_a0_proc_1 - pi_d_a1_a2_proc_2
      - pi_d_a1_a2_proc_1 + pi_d_a2_a1_proc_2 + pi_d_a2_a1_proc_1
      + pi_d_a2_a3_proc_2 + pi_d_a2_a3_proc_1 - pi_d_a3_a2_proc_2
      - pi_d_a3_a2_proc_1 + pi_d_a2_a4_proc_2 + pi_d_a2_a4_proc_3
      + pi_d_a2_a4_proc_1 - pi_d_a4_a2_proc_2 - pi_d_a4_a2_proc_3
      - pi_d_a4_a2_proc_1 + pi_d_a2_a5_proc_2 + pi_d_a2_a5_proc_3
      - pi_d_a5_a2_proc_2 - pi_d_a5_a2_proc_3 + pi_d_a2_a6_proc_2
      + pi_d_a2_a6_proc_3 + pi_d_a2_a6_proc_1 - pi_d_a6_a2_proc_2
      - pi_d_a6_a2_proc_3 - pi_d_a6_a2_proc_1 + pi_d_a2_a7_proc_2
      + pi_d_a2_a7_proc_3 - pi_d_a7_a2_proc_2 - pi_d_a7_a2_proc_3
      + pi_d_a2_a8_proc_2 + pi_d_a2_a8_proc_3 - pi_d_a8_a2_proc_2
      - pi_d_a8_a2_proc_3 + pi_d_a2_a9_proc_2 + pi_d_a2_a9_proc_3
      + pi_d_a2_a9_proc_1 - pi_d_a9_a2_proc_2 - pi_d_a9_a2_proc_3
      - pi_d_a9_a2_proc_1 >= 0
 c11: 1208 pi_p_a2_a1 + 1208 pi_p_a2_a3 + 1208 pi_d_a2_a0_proc_1
      + 1208 pi_d_a2_a1_proc_1 + 1208 pi_d_a2_a3_proc_1 + 1208 pi_d_a2_a4_proc_1
      + 1208 pi_d_a2_a6_proc_1 + 1208 pi_d_a2_a9_proc_1 + pi_y1_a2
      + pi_y2_a2_proc_1 >= 0
 c12: 892 pi_p_a2_a1 + 892 pi_p_a2_a3 + 892 pi_d_a2_a0_proc_2
      + 892 pi_d_a2_a1_proc_2 + 892 pi_d_a2_a3_proc_2 + 892 pi_d_a2_a4_proc_2
      + 892 pi_d_a2_a5_proc_2 + 892 pi_d_a2_a6_proc_2 + 892 pi_d_a2_a7_proc_2
      + 892 pi_d_a2_a8_proc_2 + 892 pi_d_a2_a9_proc_2 + pi_y1_a2
      + pi_y2_a2_proc_2 >= 0
 c13: 842 pi_p_a2_a1 + 842 pi_p_a2_a3 + 842 pi_d_a2_a0_proc_3
      + 842 pi_d_a2_a4_proc_3 + 842 pi_d_a2_a5_proc_3 + 842 pi_d_a2_a6_proc_3
      + 842 pi_d_a2_a7_proc_3 + 842 pi_d_a2_a8_proc_3 + 842 pi_d_a2_a9_proc_3
      + pi_y1_a2 + pi_y2_a2_proc_3 >= 0
 c14: - pi_p_a0_a3 + pi_p_a3_a2 + pi_p_a3_a7 - pi_p_a2_a3 - pi_d_a0_a3_proc_2
      - pi_d_a0_a3_proc_1 + pi_d_a3_a0_proc_2 + pi_d_a3_a0_proc_1
      - pi_d_a1_a3_proc_2 - pi_d_a1_a3_proc_0 - pi_d_a1_a3_proc_1
      + pi_d_a3_a1_proc_2 + pi_d_a3_a1_proc_0 + pi_d_a3_a1_proc_1
      - pi_d_a2_a3_proc_2 - pi_d_a2_a3_proc_1 + pi_d_a3_a2_proc_2
      + pi_d_a3_a2_proc_1 + pi_d_a3_a4_proc_2 + pi_d_a3_a4_proc_0
      + pi_d_a3_a4_proc_1 - pi_d_a4_a3_proc_2 - pi_d_a4_a3_proc_0
      - pi_d_a4_a3_proc_1 + pi_d_a3_a5_proc_2 + pi_d_a3_a5_proc_0
      - pi_d_a5_a3_proc_2 - pi_d_a5_a3_proc_0 + pi_d_a3_a6_proc_2
      + pi_d_a3_a6_proc_0 + pi_d_a3_a6_proc_1 - pi_d_a6_a3_proc_2
      - pi_d_a6_a3_proc_0 - pi_d_a6_a3_proc_1 + pi_d_a3_a7_proc_2
      + pi_d_a3_a7_proc_0 - pi_d_a7_a3_proc_2 - pi_d_a7_a3_proc_0
      + pi_d_a3_a8_proc_2 + pi_d_a3_a8_proc_0 - pi_d_a8_a3_proc_2
      - pi_d_a8_a3_proc_0 + pi_d_a3_a9_proc_2 + pi_d_a3_a9_proc_0
      + pi_d_a3_a9_proc_1 - pi_d_a9_a3_proc_2 - pi_d_a9_a3_proc_0
      - pi_d_a9_a3_proc_1 >= 0
 c15: 793 pi_p_a3_a2 + 793 pi_p_a3_a7 + 793 pi_d_a3_a1_proc_0
      + 793 pi_d_a3_a4_proc_0 + 793 pi_d_a3_a5_proc_0 + 793 pi_d_a3_a6_proc_0
      + 793 pi_d_a3_a7_proc_0 + 793 pi_d_a3_a8_proc_0 + 793 pi_d_a3_a9_proc_0
      + pi_y1_a3 + pi_y2_a3_proc_0 >= 0
 c16: 1289 pi_p_a3_a2 + 1289 pi_p_a3_a7 + 1289 pi_d_a3_a0_proc_1
      + 1289 pi_d_a3_a1_proc_1 + 1289 pi_d_a3_a2_proc_1 + 1289 pi_d_a3_a4_proc_1
      + 1289 pi_d_a3_a6_proc_1 + 1289 pi_d_a3_a9_proc_1 + pi_y1_a3
      + pi_y2_a3_proc_1 >= 0
 c17: 1139 pi_p_a3_a2 + 1139 pi_p_a3_a7 + 1139 pi_d_a3_a0_proc_2
      + 1139 pi_d_a3_a1_proc_2 + 1139 pi_d_a3_a2_proc_2 + 1139 pi_d_a3_a4_proc_2
      + 1139 pi_d_a3_a5_proc_2 + 1139 pi_d_a3_a6_proc_2 + 1139 pi_d_a3_a7_proc_2
      + 1139 pi_d_a3_a8_proc_2 + 1139 pi_d_a3_a9_proc_2 + pi_y1_a3
      + pi_y2_a3_proc_2 >= 0
 c18: pi_p_a4_a0 - pi_p_a5_a4 - pi_p_a6_a4 - pi_d_a0_a4_proc_2
      - pi_d_a0_a4_proc_3 - pi_d_a0_a4_proc_1 + pi_d_a4_a0_proc_2
      + pi_d_a4_a0_proc_3 + pi_d_a4_a0_proc_1 - pi_d_a1_a4_proc_2
      - pi_d_a1_a4_proc_0 - pi_d_a1_a4_proc_1 + pi_d_a4_a1_proc_2
      + pi_d_a4_a1_proc_0 + pi_d_a4_a1_proc_1 - pi_d_a2_a4_proc_2
      - pi_d_a2_a4_proc_3 - pi_d_a2_a4_proc_1 + pi_d_a4_a2_proc_2
      + pi_d_a4_a2_proc_3 + pi_d_a4_a2_proc_1 - pi_d_a3_a4_proc_2
      - pi_d_a3_a4_proc_0 - pi_d_a3_a4_proc_1 + pi_d_a4_a3_proc_2
      + pi_d_a4_a3_proc_0 + pi_d_a4_a3_proc_1 + pi_d_a4_a5_proc_2
      + pi_d_a4_a5_proc_3 + pi_d_a4_a5_proc_0 - pi_d_a5_a4_proc_2
      - pi_d_a5_a4_proc_3 - pi_d_a5_a4_proc_0 + pi_d_a4_a6_proc_2
      + pi_d_a4_a6_proc_3 + pi_d_a4_a6_proc_0 + pi_d_a4_a6_proc_1
      - pi_d_a6_a4_proc_2 - pi_d_a6_a4_proc_3 - pi_d_a6_a4_proc_0
      - pi_d_a6_a4_proc_1 + pi_d_a4_a7_proc_2 + pi_d_a4_a7_proc_3
      + pi_d_a4_a7_proc_0 - pi_d_a7_a4_proc_2 - pi_d_a7_a4_proc_3
      - pi_d_a7_a4_proc_0 + pi_d_a4_a8_proc_2 + pi_d_a4_a8_proc_3
      + pi_d_a4_a8_proc_0 - pi_d_a8_a4_proc_2 - pi_d_a8_a4_proc_3
      - pi_d_a8_a4_proc_0 + pi_d_a4_a9_proc_2 + pi_d_a4_a9_proc_3
      + pi_d_a4_a9_proc_0 + pi_d_a4_a9_proc_1 - pi_d_a9_a4_proc_2
      - pi_d_a9_a4_proc_3 - pi_d_a9_a4_proc_0 - pi_d_a9_a4_proc_1 >= 0
 c19: 836 pi_p_a4_a0 + 836 pi_d_a4_a1_proc_0 + 836 pi_d_a4_a3_proc_0
      + 836 pi_d_a4_a5_proc_0 + 836 pi_d_a4_a6_proc_0 + 836 pi_d_a4_a7_proc_0
      + 836 pi_d_a4_a8_proc_0 + 836 pi_d_a4_a9_proc_0 + pi_y1_a4
      + pi_y2_a4_proc_0 >= 0
 c20: 1102 pi_p_a4_a0 + 1102 pi_d_a4_a0_proc_1 + 1102 pi_d_a4_a1_proc_1
      + 1102 pi_d_a4_a2_proc_1 + 1102 pi_d_a4_a3_proc_1 + 1102 pi_d_a4_a6_proc_1
      + 1102 pi_d_a4_a9_proc_1 + pi_y1_a4 + pi_y2_a4_proc_1 >= 0
 c21: 1153 pi_p_a4_a0 + 1153 pi_d_a4_a0_proc_2 + 1153 pi_d_a4_a1_proc_2
      + 1153 pi_d_a4_a2_proc_2 + 1153 pi_d_a4_a3_proc_2 + 1153 pi_d_a4_a5_proc_2
      + 1153 pi_d_a4_a6_proc_2 + 1153 pi_d_a4_a7_proc_2 + 1153 pi_d_a4_a8_proc_2
      + 1153 pi_d_a4_a9_proc_2 + pi_y1_a4 + pi_y2_a4_proc_2 >= 0
 c22: 1188 pi_p_a4_a0 + 1188 pi_d_a4_a0_proc_3 + 1188 pi_d_a4_a2_proc_3
      + 1188 pi_d_a4_a5_proc_3 + 1188 pi_d_a4_a6_proc_3 + 1188 pi_d_a4_a7_proc_3
      + 1188 pi_d_a4_a8_proc_3 + 1188 pi_d_a4_a9_proc_3 + pi_y1_a4
      + pi_y2_a4_proc_3 >= 0
 c23: pi_p_a5_a4 + pi_p_a5_a8 - pi_d_a0_a5_proc_2 - pi_d_a0_a5_proc_3
      + pi_d_a5_a0_proc_2 + pi_d_a5_a0_proc_3 - pi_d_a1_a5_proc_2
      - pi_d_a1_a5_proc_0 + pi_d_a5_a1_proc_2 + pi_d_a5_a1_proc_0
      - pi_d_a2_a5_proc_2 - pi_d_a2_a5_proc_3 + pi_d_a5_a2_proc_2
      + pi_d_a5_a2_proc_3 - pi_d_a3_a5_proc_2 - pi_d_a3_a5_proc_0
      + pi_d_a5_a3_proc_2 + pi_d_a5_a3_proc_0 - pi_d_a4_a5_proc_2
      - pi_d_a4_a5_proc_3 - pi_d_a4_a5_proc_0 + pi_d_a5_a4_proc_2
      + pi_d_a5_a4_proc_3 + pi_d_a5_a4_proc_0 + pi_d_a5_a6_proc_2
      + pi_d_a5_a6_proc_3 + pi_d_a5_a6_proc_0 - pi_d_a6_a5_proc_2
      - pi_d_a6_a5_proc_3 - pi_d_a6_a5_proc_0 + pi_d_a5_a7_proc_2
      + pi_d_a5_a7_proc_3 + pi_d_a5_a7_proc_0 - pi_d_a7_a5_proc_2
      - pi_d_a7_a5_proc_3 - pi_d_a7_a5_proc_0 + pi_d_a5_a8_proc_2
      + pi_d_a5_a8_proc_3 + pi_d_a5_a8_proc_0 - pi_d_a8_a5_proc_2
      - pi_d_a8_a5_proc_3 - pi_d_a8_a5_proc_0 + pi_d_a5_a9_proc_2
      + pi_d_a5_a9_proc_3 + pi_d_a5_a9_proc_0 - pi_d_a9_a5_proc_2
      - pi_d_a9_a5_proc_3 - pi_d_a9_a5_proc_0 >= 0
 c24: 1184 pi_p_a5_a4 + 1184 pi_p_a5_a8 + 1184 pi_p_a5_a5
      + 1184 pi_d_a5_a1_proc_0 + 1184 pi_d_a5_a3_proc_0 + 1184 pi_d_a5_a4_proc_0
      + 1184 pi_d_a5_a6_proc_0 + 1184 pi_d_a5_a7_proc_0 + 1184 pi_d_a5_a8_proc_0
      + 1184 pi_d_a5_a9_proc_0 + pi_y1_a5 + pi_y2_a5_proc_0 >= 0
 c25: 828 pi_p_a5_a4 + 828 pi_p_a5_a8 + 828 pi_p_a5_a5 + 828 pi_d_a5_a0_proc_2
      + 828 pi_d_a5_a1_proc_2 + 828 pi_d_a5_a2_proc_2 + 828 pi_d_a5_a3_proc_2
      + 828 pi_d_a5_a4_proc_2 + 828 pi_d_a5_a6_proc_2 + 828 pi_d_a5_a7_proc_2
      + 828 pi_d_a5_a8_proc_2 + 828 pi_d_a5_a9_proc_2 + pi_y1_a5
      + pi_y2_a5_proc_2 >= 0
 c26: 1171 pi_p_a5_a4 + 1171 pi_p_a5_a8 + 1171 pi_p_a5_a5
      + 1171 pi_d_a5_a0_proc_3 + 1171 pi_d_a5_a2_proc_3 + 1171 pi_d_a5_a4_proc_3
      + 1171 pi_d_a5_a6_proc_3 + 1171 pi_d_a5_a7_proc_3 + 1171 pi_d_a5_a8_proc_3
      + 1171 pi_d_a5_a9_proc_3 + pi_y1_a5 + pi_y2_a5_proc_3 >= 0
 c27: - pi_p_a1_a6 + pi_p_a6_a4 - pi_d_a0_a6_proc_2 - pi_d_a0_a6_proc_3
      - pi_d_a0_a6_proc_1 + pi_d_a6_a0_proc_2 + pi_d_a6_a0_proc_3
      + pi_d_a6_a0_proc_1 - pi_d_a1_a6_proc_2 - pi_d_a1_a6_proc_0
      - pi_d_a1_a6_proc_1 + pi_d_a6_a1_proc_2 + pi_d_a6_a1_proc_0
      + pi_d_a6_a1_proc_1 - pi_d_a2_a6_proc_2 - pi_d_a2_a6_proc_3
      - pi_d_a2_a6_proc_1 + pi_d_a6_a2_proc_2 + pi_d_a6_a2_proc_3
      + pi_d_a6_a2_proc_1 - pi_d_a3_a6_proc_2 - pi_d_a3_a6_proc_0
      - pi_d_a3_a6_proc_1 + pi_d_a6_a3_proc_2 + pi_d_a6_a3_proc_0
      + pi_d_a6_a3_proc_1 - pi_d_a4_a6_proc_2 - pi_d_a4_a6_proc_3
      - pi_d_a4_a6_proc_0 - pi_d_a4_a6_proc_1 + pi_d_a6_a4_proc_2
      + pi_d_a6_a4_proc_3 + pi_d_a6_a4_proc_0 + pi_d_a6_a4_proc_1
      - pi_d_a5_a6_proc_2 - pi_d_a5_a6_proc_3 - pi_d_a5_a6_proc_0
      + pi_d_a6_a5_proc_2 + pi_d_a6_a5_proc_3 + pi_d_a6_a5_proc_0
      + pi_d_a6_a7_proc_2 + pi_d_a6_a7_proc_3 + pi_d_a6_a7_proc_0
      - pi_d_a7_a6_proc_2 - pi_d_a7_a6_proc_3 - pi_d_a7_a6_proc_0
      + pi_d_a6_a8_proc_2 + pi_d_a6_a8_proc_3 + pi_d_a6_a8_proc_0
      - pi_d_a8_a6_proc_2 - pi_d_a8_a6_proc_3 - pi_d_a8_a6_proc_0
      + pi_d_a6_a9_proc_2 + pi_d_a6_a9_proc_3 + pi_d_a6_a9_proc_0
      + pi_d_a6_a9_proc_1 - pi_d_a9_a6_proc_2 - pi_d_a9_a6_proc_3
      - pi_d_a9_a6_proc_0 - pi_d_a9_a6_proc_1 >= 0
 c28: 1132 pi_p_a6_a4 + 1132 pi_d_a6_a1_proc_0 + 1132 pi_d_a6_a3_proc_0
      + 1132 pi_d_a6_a4_proc_0 + 1132 pi_d_a6_a5_proc_0 + 1132 pi_d_a6_a7_proc_0
      + 1132 pi_d_a6_a8_proc_0 + 1132 pi_d_a6_a9_proc_0 + pi_y1_a6
      + pi_y2_a6_proc_0 >= 0
 c29: 915 pi_p_a6_a4 + 915 pi_d_a6_a0_proc_1 + 915 pi_d_a6_a1_proc_1
      + 915 pi_d_a6_a2_proc_1 + 915 pi_d_a6_a3_proc_1 + 915 pi_d_a6_a4_proc_1
      + 915 pi_d_a6_a9_proc_1 + pi_y1_a6 + pi_y2_a6_proc_1 >= 0
 c30: 1223 pi_p_a6_a4 + 1223 pi_d_a6_a0_proc_2 + 1223 pi_d_a6_a1_proc_2
      + 1223 pi_d_a6_a2_proc_2 + 1223 pi_d_a6_a3_proc_2 + 1223 pi_d_a6_a4_proc_2
      + 1223 pi_d_a6_a5_proc_2 + 1223 pi_d_a6_a7_proc_2 + 1223 pi_d_a6_a8_proc_2
      + 1223 pi_d_a6_a9_proc_2 + pi_y1_a6 + pi_y2_a6_proc_2 >= 0
 c31: 707 pi_p_a6_a4 + 707 pi_d_a6_a0_proc_3 + 707 pi_d_a6_a2_proc_3
      + 707 pi_d_a6_a4_proc_3 + 707 pi_d_a6_a5_proc_3 + 707 pi_d_a6_a7_proc_3
      + 707 pi_d_a6_a8_proc_3 + 707 pi_d_a6_a9_proc_3 + pi_y1_a6
      + pi_y2_a6_proc_3 >= 0
 c32: pi_p_a7_a1 - pi_p_a3_a7 - pi_p_a9_a7 - pi_d_a0_a7_proc_2
      - pi_d_a0_a7_proc_3 + pi_d_a7_a0_proc_2 + pi_d_a7_a0_proc_3
      - pi_d_a1_a7_proc_2 - pi_d_a1_a7_proc_0 + pi_d_a7_a1_proc_2
      + pi_d_a7_a1_proc_0 - pi_d_a2_a7_proc_2 - pi_d_a2_a7_proc_3
      + pi_d_a7_a2_proc_2 + pi_d_a7_a2_proc_3 - pi_d_a3_a7_proc_2
      - pi_d_a3_a7_proc_0 + pi_d_a7_a3_proc_2 + pi_d_a7_a3_proc_0
      - pi_d_a4_a7_proc_2 - pi_d_a4_a7_proc_3 - pi_d_a4_a7_proc_0
      + pi_d_a7_a4_proc_2 + pi_d_a7_a4_proc_3 + pi_d_a7_a4_proc_0
      - pi_d_a5_a7_proc_2 - pi_d_a5_a7_proc_3 - pi_d_a5_a7_proc_0
      + pi_d_a7_a5_proc_2 + pi_d_a7_a5_proc_3 + pi_d_a7_a5_proc_0
      - pi_d_a6_a7_proc_2 - pi_d_a6_a7_proc_3 - pi_d_a6_a7_proc_0
      + pi_d_a7_a6_proc_2 + pi_d_a7_a6_proc_3 + pi_d_a7_a6_proc_0
      + pi_d_a7_a8_proc_2 + pi_d_a7_a8_proc_3 + pi_d_a7_a8_proc_0
      - pi_d_a8_a7_proc_2 - pi_d_a8_a7_proc_3 - pi_d_a8_a7_proc_0
      + pi_d_a7_a9_proc_2 + pi_d_a7_a9_proc_3 + pi_d_a7_a9_proc_0
      - pi_d_a9_a7_proc_2 - pi_d_a9_a7_proc_3 - pi_d_a9_a7_proc_0 >= 0
 c33: 578 pi_p_a7_a1 + 578 pi_d_a7_a1_proc_0 + 578 pi_d_a7_a3_proc_0
      + 578 pi_d_a7_a4_proc_0 + 578 pi_d_a7_a5_proc_0 + 578 pi_d_a7_a6_proc_0
      + 578 pi_d_a7_a8_proc_0 + 578 pi_d_a7_a9_proc_0 + pi_y1_a7
      + pi_y2_a7_proc_0 >= 0
 c34: 1139 pi_p_a7_a1 + 1139 pi_d_a7_a0_proc_2 + 1139 pi_d_a7_a1_proc_2
      + 1139 pi_d_a7_a2_proc_2 + 1139 pi_d_a7_a3_proc_2 + 1139 pi_d_a7_a4_proc_2
      + 1139 pi_d_a7_a5_proc_2 + 1139 pi_d_a7_a6_proc_2 + 1139 pi_d_a7_a8_proc_2
      + 1139 pi_d_a7_a9_proc_2 + pi_y1_a7 + pi_y2_a7_proc_2 >= 0
 c35: 1214 pi_p_a7_a1 + 1214 pi_d_a7_a0_proc_3 + 1214 pi_d_a7_a2_proc_3
      + 1214 pi_d_a7_a4_proc_3 + 1214 pi_d_a7_a5_proc_3 + 1214 pi_d_a7_a6_proc_3
      + 1214 pi_d_a7_a8_proc_3 + 1214 pi_d_a7_a9_proc_3 + pi_y1_a7
      + pi_y2_a7_proc_3 >= 0
 c36: - pi_p_a5_a8 + pi_p_a8_a9 - pi_d_a0_a8_proc_2 - pi_d_a0_a8_proc_3
      + pi_d_a8_a0_proc_2 + pi_d_a8_a0_proc_3 - pi_d_a1_a8_proc_2
      - pi_d_a1_a8_proc_0 + pi_d_a8_a1_proc_2 + pi_d_a8_a1_proc_0
      - pi_d_a2_a8_proc_2 - pi_d_a2_a8_proc_3 + pi_d_a8_a2_proc_2
      + pi_d_a8_a2_proc_3 - pi_d_a3_a8_proc_2 - pi_d_a3_a8_proc_0
      + pi_d_a8_a3_proc_2 + pi_d_a8_a3_proc_0 - pi_d_a4_a8_proc_2
      - pi_d_a4_a8_proc_3 - pi_d_a4_a8_proc_0 + pi_d_a8_a4_proc_2
      + pi_d_a8_a4_proc_3 + pi_d_a8_a4_proc_0 - pi_d_a5_a8_proc_2
      - pi_d_a5_a8_proc_3 - pi_d_a5_a8_proc_0 + pi_d_a8_a5_proc_2
      + pi_d_a8_a5_proc_3 + pi_d_a8_a5_proc_0 - pi_d_a6_a8_proc_2
      - pi_d_a6_a8_proc_3 - pi_d_a6_a8_proc_0 + pi_d_a8_a6_proc_2
      + pi_d_a8_a6_proc_3 + pi_d_a8_a6_proc_0 - pi_d_a7_a8_proc_2
      - pi_d_a7_a8_proc_3 - pi_d_a7_a8_proc_0 + pi_d_a8_a7_proc_2
      + pi_d_a8_a7_proc_3 + pi_d_a8_a7_proc_0 + pi_d_a8_a9_proc_2
      + pi_d_a8_a9_proc_3 + pi_d_a8_a9_proc_0 - pi_d_a9_a8_proc_2
      - pi_d_a9_a8_proc_3 - pi_d_a9_a8_proc_0 >= 0
 c37: 1091 pi_p_a8_a9 + 1091 pi_p_a8_a8 + 1091 pi_d_a8_a1_proc_0
      + 1091 pi_d_a8_a3_proc_0 + 1091 pi_d_a8_a4_proc_0 + 1091 pi_d_a8_a5_proc_0
      + 1091 pi_d_a8_a6_proc_0 + 1091 pi_d_a8_a7_proc_0 + 1091 pi_d_a8_a9_proc_0
      + pi_y1_a8 + pi_y2_a8_proc_0 >= 0
 c38: 1240 pi_p_a8_a9 + 1240 pi_p_a8_a8 + 1240 pi_d_a8_a0_proc_2
      + 1240 pi_d_a8_a1_proc_2 + 1240 pi_d_a8_a2_proc_2 + 1240 pi_d_a8_a3_proc_2
      + 1240 pi_d_a8_a4_proc_2 + 1240 pi_d_a8_a5_proc_2 + 1240 pi_d_a8_a6_proc_2
      + 1240 pi_d_a8_a7_proc_2 + 1240 pi_d_a8_a9_proc_2 + pi_y1_a8
      + pi_y2_a8_proc_2 >= 0
 c39: 802 pi_p_a8_a9 + 802 pi_p_a8_a8 + 802 pi_d_a8_a0_proc_3
      + 802 pi_d_a8_a2_proc_3 + 802 pi_d_a8_a4_proc_3 + 802 pi_d_a8_a5_proc_3
      + 802 pi_d_a8_a6_proc_3 + 802 pi_d_a8_a7_proc_3 + 802 pi_d_a8_a9_proc_3
      + pi_y1_a8 + pi_y2_a8_proc_3 >= 0
 c40: - pi_p_a8_a9 - pi_p_a0_a9 + pi_p_a9_a7 - pi_d_a0_a9_proc_2
      - pi_d_a0_a9_proc_3 - pi_d_a0_a9_proc_1 + pi_d_a9_a0_proc_2
      + pi_d_a9_a0_proc_3 + pi_d_a9_a0_proc_1 - pi_d_a1_a9_proc_2
      - pi_d_a1_a9_proc_0 - pi_d_a1_a9_proc_1 + pi_d_a9_a1_proc_2
      + pi_d_a9_a1_proc_0 + pi_d_a9_a1_proc_1 - pi_d_a2_a9_proc_2
      - pi_d_a2_a9_proc_3 - pi_d_a2_a9_proc_1 + pi_d_a9_a2_proc_2
      + pi_d_a9_a2_proc_3 + pi_d_a9_a2_proc_1 - pi_d_a3_a9_proc_2
      - pi_d_a3_a9_proc_0 - pi_d_a3_a9_proc_1 + pi_d_a9_a3_proc_2
      + pi_d_a9_a3_proc_0 + pi_d_a9_a3_proc_1 - pi_d_a4_a9_proc_2
      - pi_d_a4_a9_proc_3 - pi_d_a4_a9_proc_0 - pi_d_a4_a9_proc_1
      + pi_d_a9_a4_proc_2 + pi_d_a9_a4_proc_3 + pi_d_a9_a4_proc_0
      + pi_d_a9_a4_proc_1 - pi_d_a5_a9_proc_2 - pi_d_a5_a9_proc_3
      - pi_d_a5_a9_proc_0 + pi_d_a9_a5_proc_2 + pi_d_a9_a5_proc_3
      + pi_d_a9_a5_proc_0 - pi_d_a6_a9_proc_2 - pi_d_a6_a9_proc_3
      - pi_d_a6_a9_proc_0 - pi_d_a6_a9_proc_1 + pi_d_a9_a6_proc_2
      + pi_d_a9_a6_proc_3 + pi_d_a9_a6_proc_0 + pi_d_a9_a6_proc_1
      - pi_d_a7_a9_proc_2 - pi_d_a7_a9_proc_3 - pi_d_a7_a9_proc_0
      + pi_d_a9_a7_proc_2 + pi_d_a9_a7_proc_3 + pi_d_a9_a7_proc_0
      - pi_d_a8_a9_proc_2 - pi_d_a8_a9_proc_3 - pi_d_a8_a9_proc_0
      + pi_d_a9_a8_proc_2 + pi_d_a9_a8_proc_3 + pi_d_a9_a8_proc_0 >= 0
 c41: 982 pi_p_a9_a7 + 982 pi_d_a9_a1_proc_0 + 982 pi_d_a9_a3_proc_0
      + 982 pi_d_a9_a4_proc_0 + 982 pi_d_a9_a5_proc_0 + 982 pi_d_a9_a6_proc_0
      + 982 pi_d_a9_a7_proc_0 + 982 pi_d_a9_a8_proc_0 + pi_y1_a9
      + pi_y2_a9_proc_0 >= 0
 c42: 982 pi_p_a9_a7 + 982 pi_d_a9_a0_proc_1 + 982 pi_d_a9_a1_proc_1
      + 982 pi_d_a9_a2_proc_1 + 982 pi_d_a9_a3_proc_1 + 982 pi_d_a9_a4_proc_1
      + 982 pi_d_a9_a6_proc_1 + pi_y1_a9 + pi_y2_a9_proc_1 >= 0
 c43: 888 pi_p_a9_a7 + 888 pi_d_a9_a0_proc_2 + 888 pi_d_a9_a1_proc_2
      + 888 pi_d_a9_a2_proc_2 + 888 pi_d_a9_a3_proc_2 + 888 pi_d_a9_a4_proc_2
      + 888 pi_d_a9_a5_proc_2 + 888 pi_d_a9_a6_proc_2 + 888 pi_d_a9_a7_proc_2
      + 888 pi_d_a9_a8_proc_2 + pi_y1_a9 + pi_y2_a9_proc_2 >= 0
 c44: 806 pi_p_a9_a7 + 806 pi_d_a9_a0_proc_3 + 806 pi_d_a9_a2_proc_3
      + 806 pi_d_a9_a4_proc_3 + 806 pi_d_a9_a5_proc_3 + 806 pi_d_a9_a6_proc_3
      + 806 pi_d_a9_a7_proc_3 + 806 pi_d_a9_a8_proc_3 + pi_y1_a9
      + pi_y2_a9_proc_3 >= 0

Bounds
       pi_y1_a0 Free
       pi_y1_a1 Free
       pi_y1_a2 Free
       pi_y1_a3 Free
       pi_y1_a4 Free
       pi_y1_a5 Free
       pi_y1_a6 Free
       pi_y1_a7 Free
       pi_y1_a8 Free
       pi_y1_a9 Free
End
